
<<< setup


<<< generate

Version identifier: 12.10.0.0 | 2019-11-26 | 843d4de2ae
CPXPARAM_TimeLimit                               1200
Tried aggregator 3 times.
MIP Presolve eliminated 5131405 rows and 2893973 columns.
MIP Presolve modified 428244 coefficients.
Aggregator did 565 substitutions.
Reduced MIP has 111080 rows, 117012 columns, and 746304 nonzeros.
Reduced MIP has 116962 binaries, 0 generals, 0 SOSs, and 0 indicators.
Presolve time = 7.72 sec. (4725.27 ticks)
Found incumbent of value 4821.000000 after 11.58 sec. (6113.68 ticks)
Probing fixed 3578 vars, tightened 0 bounds.
Probing time = 56.63 sec. (10011.25 ticks)
Tried aggregator 1 time.
Detecting symmetries...
MIP Presolve eliminated 3538 rows and 3578 columns.
Reduced MIP has 107542 rows, 113434 columns, and 722073 nonzeros.
Reduced MIP has 113384 binaries, 0 generals, 0 SOSs, and 0 indicators.
Presolve time = 0.88 sec. (480.08 ticks)
Probing time = 0.31 sec. (57.16 ticks)
Clique table members: 395807.
MIP emphasis: balance optimality and feasibility.
MIP search method: dynamic search.
Parallel mode: deterministic, using up to 4 threads.
Root relaxation solution time = 5.00 sec. (2623.83 ticks)

        Nodes                                         Cuts/
   Node  Left     Objective  IInf  Best Integer    Best Bound    ItCnt     Gap

*     0+    0                         4821.0000   124379.0000              --- 
      0     0    64105.0000   728     4821.0000    64105.0000    10762     --- 
*     0+    0                         6754.0000    64105.0000           849.14%
      0     0    64105.0000   728     6754.0000      Cuts: 17    10854  849.14%
      0     0    64105.0000   728     6754.0000    Cuts: 9059    17802  849.14%
      0     0    64105.0000   728     6754.0000     Cuts: 558    31585  849.14%
*     0+    0                         9258.0000    64105.0000           592.43%
      0     0        cutoff           9258.0000    64105.0000    31585  592.43%
      0     0    64105.0000   728     9258.0000    Cuts: 9432    42800  592.43%
Heuristic still looking.
      0     2    64105.0000   459     9258.0000    64105.0000    55786  592.43%
Elapsed time = 594.89 sec. (250863.78 ticks, tree = 0.02 MB, solutions = 3)
      1     3    64105.0000   458     9258.0000    64105.0000    56229  592.43%
      2     4    64105.0000   614     9258.0000    64105.0000    68112  592.43%
      3     5    64105.0000   676     9258.0000    64105.0000    83472  592.43%
      4     3    64105.0000   434     9258.0000    64105.0000    80359  592.43%
      5     5    64105.0000   619     9258.0000    64105.0000    69482  592.43%
      6     7    64105.0000   484     9258.0000    64105.0000   110982  592.43%
      7     9    64105.0000   584     9258.0000    64105.0000   140182  592.43%
      9     8    64105.0000   573     9258.0000    64105.0000   118004  592.43%
     10     4    64105.0000   607     9258.0000    64105.0000    62969  592.43%
     12     9    64105.0000   646     9258.0000    64105.0000   147695  592.43%
Elapsed time = 721.05 sec. (294926.48 ticks, tree = 0.12 MB, solutions = 3)
     14    10    64105.0000   585     9258.0000    64105.0000   138892  592.43%
     15    10    64105.0000   564     9258.0000    64105.0000   150303  592.43%
     16    13    64105.0000   673     9258.0000    64105.0000   165648  592.43%
     17    14    64105.0000   586     9258.0000    64105.0000   166670  592.43%
     18    15    64105.0000   538     9258.0000    64105.0000   166849  592.43%
     20    16    64105.0000   473     9258.0000    64105.0000   168000  592.43%
     23    16    64105.0000   470     9258.0000    64105.0000   168026  592.43%
     29    20    64105.0000   483     9258.0000    64105.0000   212100  592.43%
     34    20    64105.0000   464     9258.0000    64105.0000   214790  592.43%
     36    20    64105.0000   480     9258.0000    64105.0000   216452  592.43%
Elapsed time = 775.92 sec. (315016.95 ticks, tree = 1.41 MB, solutions = 3)
     38    17    64105.0000   559     9258.0000    64105.0000   214000  592.43%
     39    24    64105.0000   548     9258.0000    64105.0000   288015  592.43%
     42    21    64105.0000   469     9258.0000    64105.0000   229203  592.43%
     44    25    64105.0000   508     9258.0000    64105.0000   289345  592.43%
     45    26    64105.0000   465     9258.0000    64105.0000   311466  592.43%
     46    28    64105.0000   480     9258.0000    64105.0000   363271  592.43%
     47    27    64105.0000   466     9258.0000    64105.0000   312864  592.43%
     49    29    64105.0000   488     9258.0000    64105.0000   365459  592.43%
     50    30    64105.0000   525     9258.0000    64105.0000   366013  592.43%
     51    26    64105.0000   901     9258.0000    64105.0000   299530  592.43%
Elapsed time = 823.81 sec. (334281.01 ticks, tree = 1.51 MB, solutions = 3)
     54    31    64105.0000   515     9258.0000    64105.0000   372821  592.43%
     55    31    64105.0000   483     9258.0000    64105.0000   374494  592.43%
     57    33    64105.0000   518     9258.0000    64105.0000   376272  592.43%
     58    34    64105.0000   498     9258.0000    64105.0000   382086  592.43%
     59    39    64105.0000   456     9258.0000    64105.0000   412343  592.43%
     62    34    64105.0000   440     9258.0000    64105.0000   383918  592.43%
     64    22    64105.0000   482     9258.0000    64105.0000   284336  592.43%
     65    38    64105.0000   441     9258.0000    64105.0000   412082  592.43%
     66    35    64105.0000   661     9258.0000    64105.0000   390656  592.43%
     67    38    64105.0000   399     9258.0000    64105.0000   420771  592.43%
Elapsed time = 911.50 sec. (363105.57 ticks, tree = 6.13 MB, solutions = 3)
     68    39    64105.0000   411     9258.0000    64105.0000   416853  592.43%
     70    41    64105.0000   504     9258.0000    64105.0000   437427  592.43%
     71    44    infeasible           9258.0000    64105.0000   466962  592.43%
     72    46    64105.0000   599     9258.0000    64105.0000   451440  592.43%
     73    44    infeasible           9258.0000    64105.0000   483660  592.43%
     74    43    infeasible           9258.0000    64105.0000   470753  592.43%
     76    49    64105.0000   633     9258.0000    64105.0000   520858  592.43%
     77    43    infeasible           9258.0000    64105.0000   498371  592.43%

Implied bound cuts applied:  625
Flow cuts applied:  201
Mixed integer rounding cuts applied:  440

Root node processing (before b&c):
  Real time             =  563.03 sec. (235786.42 ticks)
Parallel b&c, 4 threads:
  Real time             =  637.50 sec. (177517.91 ticks)
  Sync time (average)   =  133.80 sec.
  Wait time (average)   =    0.00 sec.
                          ------------
Total (root+branch&cut) = 1200.53 sec. (413304.33 ticks)

<<< solve


OBJECTIVE: 9258

<<< post process


<<< done

